Cost: 693
0-39-9-25-55-18-50-0
0-34-46-8-19-14-35-0
0-30-21-59-36-47-48-0
0-57-15-20-37-5-29-0
0-52-54-13-27-45-4-0
0-26-17-0
0-7-53-11-38-10-58-0
0-1-43-41-42-22-28-0
0-16-49-56-23-33-6-0
0-12-40-32-44-3-51-0
Cost: 693
0-39-9-25-55-18-50-0
0-34-46-8-19-14-35-0
0-30-21-59-36-47-48-0
0-57-15-20-37-5-29-0
0-52-54-13-27-45-4-0
0-26-17-0
0-7-53-11-38-10-58-0
0-1-43-41-42-22-28-0
0-16-49-56-23-33-6-0
0-12-40-32-44-3-51-0
Cost: 693
0-39-9-25-55-18-50-0
0-34-46-8-19-14-35-0
0-30-21-59-36-47-48-0
0-57-15-20-37-5-29-0
0-52-54-13-27-45-4-0
0-26-17-0
0-7-53-11-38-10-58-0
0-1-43-41-42-22-28-0
0-16-49-56-23-33-6-0
0-12-40-32-44-3-51-0
Cost: 693
0-39-9-25-55-18-50-0
0-34-46-8-19-14-35-0
0-30-21-59-36-47-48-0
0-57-15-20-37-5-29-0
0-52-54-13-27-45-4-0
0-26-17-0
0-7-53-11-38-10-58-0
0-1-43-41-42-22-28-0
0-16-49-56-23-33-6-0
0-12-40-32-44-3-51-0
Cost: 693
0-39-9-25-55-18-50-0
0-34-46-8-19-14-35-0
0-30-21-59-36-47-48-0
0-57-15-20-37-5-29-0
0-52-54-13-27-45-4-0
0-26-17-0
0-7-53-11-38-10-58-0
0-1-43-41-42-22-28-0
0-16-49-56-23-33-6-0
0-12-40-32-44-3-51-0
Cost: 693
0-39-9-25-55-18-50-0
0-34-46-8-19-14-35-0
0-30-21-59-36-47-48-0
0-57-15-20-37-5-29-0
0-52-54-13-27-45-4-0
0-26-17-0
0-7-53-11-38-10-58-0
0-1-43-41-42-22-28-0
0-16-49-56-23-33-6-0
0-12-40-32-44-3-51-0
Cost: 693
0-39-9-25-55-18-50-0
0-34-46-8-19-14-35-0
0-30-21-59-36-47-48-0
0-57-15-20-37-5-29-0
0-52-54-13-27-45-4-0
0-26-17-0
0-7-53-11-38-10-58-0
0-1-43-41-42-22-28-0
0-16-49-56-23-33-6-0
0-12-40-32-44-3-51-0
Cost: 693
0-39-9-25-55-18-50-0
0-34-46-8-19-14-35-0
0-30-21-59-36-47-48-0
0-57-15-20-37-5-29-0
0-52-54-13-27-45-4-0
0-26-17-0
0-7-53-11-38-10-58-0
0-1-43-41-42-22-28-0
0-16-49-56-23-33-6-0
0-12-40-32-44-3-51-0
Cost: 693
0-39-9-25-55-18-50-0
0-34-46-8-19-14-35-0
0-30-21-59-36-47-48-0
0-57-15-20-37-5-29-0
0-52-54-13-27-45-4-0
0-26-17-0
0-7-53-11-38-10-58-0
0-1-43-41-42-22-28-0
0-16-49-56-23-33-6-0
0-12-40-32-44-3-51-0
Cost: 693
0-39-9-25-55-18-50-0
0-34-46-8-19-14-35-0
0-30-21-59-36-47-48-0
0-57-15-20-37-5-29-0
0-52-54-13-27-45-4-0
0-26-17-0
0-7-53-11-38-10-58-0
0-1-43-41-42-22-28-0
0-16-49-56-23-33-6-0
0-12-40-32-44-3-51-0
Cost: 693
0-6-33-23-56-49-16-0
0-51-3-44-32-40-12-0
0-39-9-25-55-18-50-0
0-26-17-0
0-30-21-59-36-47-48-0
0-29-5-37-20-15-57-0
0-4-45-27-13-54-52-0
0-28-22-42-41-43-1-0
0-34-46-8-19-14-35-0
0-7-53-11-38-10-58-0
Cost: 693
0-6-33-23-56-49-16-0
0-51-3-44-32-40-12-0
0-39-9-25-55-18-50-0
0-26-17-0
0-30-21-59-36-47-48-0
0-29-5-37-20-15-57-0
0-4-45-27-13-54-52-0
0-28-22-42-41-43-1-0
0-34-46-8-19-14-35-0
0-7-53-11-38-10-58-0
Cost: 693
0-6-33-23-56-49-16-0
0-51-3-44-32-40-12-0
0-39-9-25-55-18-50-0
0-26-17-0
0-30-21-59-36-47-48-0
0-29-5-37-20-15-57-0
0-4-45-27-13-54-52-0
0-28-22-42-41-43-1-0
0-34-46-8-19-14-35-0
0-7-53-11-38-10-58-0
Cost: 693
0-6-33-23-56-49-16-0
0-51-3-44-32-40-12-0
0-39-9-25-55-18-50-0
0-26-17-0
0-30-21-59-36-47-48-0
0-29-5-37-20-15-57-0
0-4-45-27-13-54-52-0
0-28-22-42-41-43-1-0
0-34-46-8-19-14-35-0
0-7-53-11-38-10-58-0
Cost: 693
0-6-33-23-56-49-16-0
0-51-3-44-32-40-12-0
0-39-9-25-55-18-50-0
0-26-17-0
0-30-21-59-36-47-48-0
0-29-5-37-20-15-57-0
0-4-45-27-13-54-52-0
0-28-22-42-41-43-1-0
0-34-46-8-19-14-35-0
0-7-53-11-38-10-58-0
Cost: 693
0-6-33-23-56-49-16-0
0-51-3-44-32-40-12-0
0-39-9-25-55-18-50-0
0-26-17-0
0-30-21-59-36-47-48-0
0-29-5-37-20-15-57-0
0-4-45-27-13-54-52-0
0-28-22-42-41-43-1-0
0-34-46-8-19-14-35-0
0-7-53-11-38-10-58-0
Cost: 693
0-6-33-23-56-49-16-0
0-51-3-44-32-40-12-0
0-39-9-25-55-18-50-0
0-26-17-0
0-30-21-59-36-47-48-0
0-29-5-37-20-15-57-0
0-4-45-27-13-54-52-0
0-28-22-42-41-43-1-0
0-34-46-8-19-14-35-0
0-7-53-11-38-10-58-0
Cost: 693
0-6-33-23-56-49-16-0
0-51-3-44-32-40-12-0
0-39-9-25-55-18-50-0
0-26-17-0
0-30-21-59-36-47-48-0
0-29-5-37-20-15-57-0
0-4-45-27-13-54-52-0
0-28-22-42-41-43-1-0
0-34-46-8-19-14-35-0
0-7-53-11-38-10-58-0
Cost: 693
0-6-33-23-56-49-16-0
0-51-3-44-32-40-12-0
0-39-9-25-55-18-50-0
0-26-17-0
0-30-21-59-36-47-48-0
0-29-5-37-20-15-57-0
0-4-45-27-13-54-52-0
0-28-22-42-41-43-1-0
0-34-46-8-19-14-35-0
0-7-53-11-38-10-58-0
Cost: 693
0-6-33-23-56-49-16-0
0-51-3-44-32-40-12-0
0-39-9-25-55-18-50-0
0-26-17-0
0-30-21-59-36-47-48-0
0-29-5-37-20-15-57-0
0-4-45-27-13-54-52-0
0-28-22-42-41-43-1-0
0-34-46-8-19-14-35-0
0-7-53-11-38-10-58-0
Cost: 693
0-6-33-23-56-49-16-0
0-51-3-44-32-40-12-0
0-39-9-25-55-18-50-0
0-26-17-0
0-30-21-59-36-47-48-0
0-29-5-37-20-15-57-0
0-4-45-27-13-54-52-0
0-28-22-42-41-43-1-0
0-34-46-8-19-14-35-0
0-7-53-11-38-10-58-0
Cost: 693
0-6-33-23-56-49-16-0
0-51-3-44-32-40-12-0
0-39-9-25-55-18-50-0
0-26-17-0
0-30-21-59-36-47-48-0
0-29-5-37-20-15-57-0
0-4-45-27-13-54-52-0
0-28-22-42-41-43-1-0
0-34-46-8-19-14-35-0
0-7-53-11-38-10-58-0
Cost: 693
0-12-40-32-44-3-51-0
0-28-22-42-41-43-1-0
0-50-18-55-25-9-39-0
0-21-59-36-47-48-30-0
0-34-46-8-19-14-35-0
0-4-45-27-13-54-52-0
0-26-17-0
0-16-49-56-23-33-6-0
0-29-5-37-20-15-57-0
0-7-53-11-38-10-58-0
Cost: 693
0-6-33-23-56-49-16-0
0-51-3-44-32-40-12-0
0-39-9-25-55-18-50-0
0-26-17-0
0-30-21-59-36-47-48-0
0-29-5-37-20-15-57-0
0-4-45-27-13-54-52-0
0-28-22-42-41-43-1-0
0-34-46-8-19-14-35-0
0-7-53-11-38-10-58-0
Cost: 693
0-6-33-23-56-49-16-0
0-51-3-44-32-40-12-0
0-39-9-25-55-18-50-0
0-26-17-0
0-30-21-59-36-47-48-0
0-29-5-37-20-15-57-0
0-4-45-27-13-54-52-0
0-28-22-42-41-43-1-0
0-34-46-8-19-14-35-0
0-7-53-11-38-10-58-0
Cost: 693
0-6-33-23-56-49-16-0
0-51-3-44-32-40-12-0
0-39-9-25-55-18-50-0
0-26-17-0
0-30-21-59-36-47-48-0
0-29-5-37-20-15-57-0
0-4-45-27-13-54-52-0
0-28-22-42-41-43-1-0
0-34-46-8-19-14-35-0
0-7-53-11-38-10-58-0
Cost: 693
0-48-47-36-59-21-30-0
0-4-45-27-13-54-52-0
0-35-14-19-8-46-34-0
0-2-28-22-42-41-43-0
0-17-26-0
0-6-33-23-56-49-16-0
0-57-15-20-37-5-29-0
0-7-53-11-38-10-58-0
0-12-40-32-44-3-51-0
0-39-9-25-55-18-50-0
Cost: 695
0-34-46-8-19-14-35-0
0-6-16-49-56-23-33-0
0-43-41-42-22-28-2-0
0-4-45-27-13-54-52-0
0-57-15-20-37-5-29-0
0-39-9-25-55-18-50-0
0-17-26-0
0-30-21-59-36-47-48-0
0-51-3-44-32-40-12-0
0-58-10-38-11-53-7-0
Cost: 693
0-1-43-41-42-22-28-0
0-51-3-44-32-40-12-0
0-34-46-8-19-14-35-0
0-30-21-59-36-47-48-0
0-57-15-20-37-5-29-0
0-52-54-13-27-45-4-0
0-17-26-0
0-16-49-56-23-33-6-0
0-7-53-11-38-10-58-0
0-50-18-55-25-9-39-0
Cost: 693
0-58-10-38-11-53-7-0
0-43-41-42-22-28-2-0
0-4-45-27-13-54-52-0
0-17-26-0
0-6-33-23-56-49-16-0
0-12-40-32-44-3-51-0
0-35-14-19-8-46-34-0
0-39-9-25-55-18-50-0
0-57-15-20-37-5-29-0
0-21-59-36-47-48-30-0
Cost: 693
0-48-47-36-59-21-30-0
0-35-14-19-8-46-34-0
0-39-9-25-55-18-50-0
0-7-53-11-38-10-58-0
0-16-49-56-23-33-6-0
0-12-40-32-44-3-51-0
0-1-43-41-42-22-28-0
0-26-17-0
0-4-45-27-13-54-52-0
0-57-15-20-37-5-29-0
